NAME : auto_generated
COMMENT : Automatically generated TSP instance
TYPE : TSP
DIMENSION : 25
EDGE_WEIGHT_TYPE : EUC_2D
NODE_COORD_SECTION
1 73 60
2 28 19
3 74 30
4 78 46
5 42 61
6 46 66
7 2 17
8 80 57
9 42 36
10 49 71
11 84 91
12 99 16
13 26 23
14 1 17
15 51 50
16 41 74
17 89 79
18 100 37
19 72 70
20 68 55
21 77 97
22 96 1
23 79 25
24 38 3
25 4 14
EOF
